data/mip_solutions/chen_grossmann_miller/reduced_transportation/balanced5_gurobi.sol
Elapsed time: 0.328344106674
Nodes explored: 190
Upper bound: 14.0
Lower bound: 14.0
y[0,0]=1
y[0,5]=1
y[1,1]=1
y[1,2]=1
y[1,4]=1
y[2,1]=1
y[2,3]=1
y[3,2]=1
y[4,0]=1
y[4,3]=1
y[4,4]=1
y[5,4]=1
y[6,3]=1
y[6,4]=1
q[0,2,0,2]=20.0
q[0,3,0,3]=30.0
q[0,4,0,4]=7.5
q[0,4,0,5]=2.5
q[0,5,0,5]=40.0
q[0,6,0,6]=90.0
q[0,7,0,7]=30.0
q[0,7,5,11]=10.0
q[0,8,5,11]=10.0
q[0,9,5,11]=40.0
q[1,5,2,5]=25.0
q[1,5,4,5]=55.0
q[1,6,1,6]=9.0
q[1,6,4,6]=171.0
q[1,7,1,7]=40.0
q[1,7,4,7]=40.0
q[1,8,2,9]=20.0
q[1,9,2,9]=80.0
q[2,3,3,3]=45.0
q[2,4,1,6]=15.0
q[2,5,3,5]=60.0
q[2,6,1,6]=41.0
q[2,6,3,6]=94.0
q[2,7,1,7]=12.0
q[2,7,1,8]=13.0
q[2,7,1,9]=35.0
q[2,8,1,9]=15.0
q[2,9,1,9]=15.0
q[3,6,2,6]=225.0
q[3,7,2,7]=100.0
q[3,8,2,8]=25.0
q[3,9,2,9]=25.0
q[3,9,2,10]=100.0
q[3,10,2,10]=25.0
q[4,1,0,1]=15.0
q[4,1,0,2]=4.0
q[4,1,3,3]=3.0
q[4,1,4,2]=12.0
q[4,2,0,2]=6.0
q[4,2,3,2]=28.0
q[4,3,0,3]=15.0
q[4,3,3,3]=36.0
q[4,4,0,4]=7.5
q[4,4,4,4]=9.5
q[4,5,0,5]=17.5
q[4,5,3,5]=50.5
q[4,6,0,6]=45.0
q[4,6,3,6]=108.0
q[4,7,0,7]=30.0
q[4,7,4,7]=36.0
q[4,7,4,8]=2.0
q[4,8,4,8]=17.0
q[5,0,4,0]=76.0
q[5,0,4,1]=38.0
q[5,0,4,2]=26.0
q[5,0,4,3]=57.0
q[6,4,3,4]=28.0
q[6,4,3,5]=1.5
q[6,4,3,6]=50.0
q[6,4,4,4]=9.5
q[6,4,4,5]=21.0
